
$ Database file written 2024- 1-16
$ From database: SSUB5                   
 ELEMENT /-   ELECTRON_GAS              0.0000E+00  0.0000E+00  0.0000E+00!
 ELEMENT VA   VACUUM                    0.0000E+00  0.0000E+00  0.0000E+00!
 ELEMENT AL   FCC_A1                    2.6982E+01  4.5773E+03  2.8322E+01!
 ELEMENT B    BETA_RHOMBO_B             1.0811E+01  1.2220E+03  5.9000E+00!
 ELEMENT BE   HCP_A3                    9.0122E+00  0.0000E+00  0.0000E+00!
 ELEMENT CA   FCC_A1                    4.0078E+01  6.1965E+03  4.1589E+01!
 ELEMENT FE   BCC_A2                    5.5847E+01  4.4890E+03  2.7280E+01!
 ELEMENT H    1/2_MOLE_H2(GAS)          1.0079E+00  4.2340E+03  6.5285E+01!
 ELEMENT K    BCC_A2                    3.9098E+01  7.0835E+03  6.4672E+01!
 ELEMENT LI   BCC_A2                    6.9410E+00  4.6233E+03  2.9095E+01!
 ELEMENT MG   HCP_A3                    2.4305E+01  4.9980E+03  3.2671E+01!
 ELEMENT NA   BCC_A2                    2.2990E+01  6.4475E+03  5.1447E+01!
 ELEMENT NI   FCC_A1                    5.8690E+01  4.7870E+03  2.9796E+01!
 ELEMENT RB   BCC_A2                    8.5468E+01  7.4894E+03  7.6776E+01!
 ELEMENT SR   FCC_A1                    8.7620E+01  0.0000E+00  0.0000E+00!
 ELEMENT TI   HCP_A3                    4.7880E+01  4.8100E+03  3.0648E+01!
 ELEMENT Y    HCP_A3                    8.8906E+01  0.0000E+00  0.0000E+00!
 ELEMENT ZR   HCP_A3                    9.1224E+01  5.5663E+03  3.9181E+01!
 
 SPECIES AL1B12                      AL1B12!
 SPECIES AL1B2                       AL1B2!
 SPECIES AL1H1                       AL1H1!
 SPECIES AL1H2                       AL1H2!
 SPECIES AL1H3                       AL1H3!
 SPECIES AL1H4LI1                    AL1H4LI1!
 SPECIES AL1LI1                      AL1LI1!
 SPECIES AL1NI1                      AL1NI1!
 SPECIES AL1NI3                      AL1NI3!
 SPECIES AL1TI1                      AL1TI1!
 SPECIES AL2                         AL2!
 SPECIES AL2CA1                      AL2CA1!
 SPECIES AL3NI1                      AL3NI1!
 SPECIES AL3NI2                      AL3NI2!
 SPECIES AL3TI1                      AL3TI1!
 SPECIES AL4CA1                      AL4CA1!
 SPECIES B10H14                      B10H14!
 SPECIES B1FE1                       B1FE1!
 SPECIES B1FE2                       B1FE2!
 SPECIES B1H1                        B1H1!
 SPECIES B1H2                        B1H2!
 SPECIES B1H3                        B1H3!
 SPECIES B1H4K1                      B1H4K1!
 SPECIES B1H4LI1                     B1H4LI1!
 SPECIES B1H4NA1                     B1H4NA1!
 SPECIES B1NI1                       B1NI1!
 SPECIES B1NI2                       B1NI2!
 SPECIES B1NI3                       B1NI3!
 SPECIES B1TI1                       B1TI1!
 SPECIES B2                          B2!
 SPECIES B20MG1                      B20MG1!
 SPECIES B2H6                        B2H6!
 SPECIES B2MG1                       B2MG1!
 SPECIES B2TI1                       B2TI1!
 SPECIES B2ZR1                       B2ZR1!
 SPECIES B3NI4                       B3NI4!
 SPECIES B4MG1                       B4MG1!
 SPECIES B5H9                        B5H9!
 SPECIES B6CA1                       B6CA1!
 SPECIES B7MG1                       B7MG1!
 SPECIES BE1H1                       BE1H1!
 SPECIES BE1H2                       BE1H2!
 SPECIES BE2                         BE2!
 SPECIES CA1H1                       CA1H1!
 SPECIES CA1H2                       CA1H2!
 SPECIES CA1MG2                      CA1MG2!
 SPECIES CA2                         CA2!
 SPECIES FE1H1                       FE1H1!
 SPECIES FE1TI1                      FE1TI1!
 SPECIES FE2                         FE2!
 SPECIES FE2TI1                      FE2TI1!
 SPECIES H1K1                        H1K1!
 SPECIES H1LI1                       H1LI1!
 SPECIES H1MG1                       H1MG1!
 SPECIES H1NA1                       H1NA1!
 SPECIES H1NI1                       H1NI1!
 SPECIES H1RB1                       H1RB1!
 SPECIES H1SR1                       H1SR1!
 SPECIES H1ZR1                       H1ZR1!
 SPECIES H2                          H2!
 SPECIES H2MG1                       H2MG1!
 SPECIES H2SR1                       H2SR1!
 SPECIES H2TI1                       H2TI1!
 SPECIES H2Y1                        H2Y1!
 SPECIES H2ZR1                       H2ZR1!
 SPECIES H3Y1                        H3Y1!
 SPECIES K1LI1                       K1LI1!
 SPECIES K1NA1                       K1NA1!
 SPECIES K1RB1                       K1RB1!
 SPECIES K2                          K2!
 SPECIES LI1NA1                      LI1NA1!
 SPECIES LI1RB1                      LI1RB1!
 SPECIES LI2                         LI2!
 SPECIES MG1NI2                      MG1NI2!
 SPECIES MG2                         MG2!
 SPECIES MG2NI1                      MG2NI1!
 SPECIES NA1RB1                      NA1RB1!
 SPECIES NA2                         NA2!
 SPECIES NI1TI1                      NI1TI1!
 SPECIES NI1TI2                      NI1TI2!
 SPECIES NI2                         NI2!
 SPECIES NI3TI1                      NI3TI1!
 SPECIES RB2                         RB2!
 SPECIES SR2                         SR2!
 SPECIES TI2                         TI2!
 SPECIES ZR2                         ZR2!
 
 FUNCTION F152T     298.15 +308413.104-26.8663217*T-20.78039*T*LN(T)
     +3.520865E-08*T**2-1.789015E-10*T**3-27114.25*T**(-1); 3300 Y
      +294502.846+22.5173774*T-26.85062*T*LN(T)+.001194919*T**2
     -4.501805E-08*T**3+6025110*T**(-1); 6400 Y
      +447945.062-285.801392*T+8.243415*T*LN(T)-.0023944315*T**2
     +2.426725E-08*T**3-1.2048605E+08*T**(-1); 9400 Y
      +349945.955-150.289475*T-6.454579*T*LN(T)-.0014339715*T**2
     +1.278805E-08*T**3; 10000 N !
 FUNCTION F513T     298.15 +242339.885-33.8756942*T-22.30163*T*LN(T)
     -.009810825*T**2+1.170884E-06*T**3-81867.35*T**(-1); 1000 Y
      +229237.959+91.6810888*T-40.27554*T*LN(T)+.0014274115*T**2
     -1.87539833E-07*T**3+1742835.5*T**(-1); 2900 Y
      +362863.848-449.840707*T+27.45815*T*LN(T)-.01376392*T**2
     +4.48236333E-07*T**3-47477990*T**(-1); 5400 Y
      -239497.096+1079.59411*T-151.9828*T*LN(T)+.0100311*T**2
     -1.43955783E-07*T**3+3.3253275E+08*T**(-1); 6000 N !
 FUNCTION F519T     298.15 +268822.747-48.4999125*T-23.05794*T*LN(T)
     -.02008776*T**2+2.30495167E-06*T**3-87501.45*T**(-1); 1000 Y
      +249509.094+146.734811*T-51.21688*T*LN(T)-.0017335735*T**2
     +4.76313167E-08*T**3+2409628*T**(-1); 4900 Y
      +209682.685+249.16225*T-63.23662*T*LN(T)-1.554914E-04*T**2
     +9.71094833E-09*T**3+26656905*T**(-1); 6000 N !
 FUNCTION F526T     298.15 +121005.101-73.4817378*T-16.47986*T*LN(T)
     -.041763035*T**2+5.34620833E-06*T**3-67626.8*T**(-1); 800 Y
      +95829.9424+215.650993*T-59.0983*T*LN(T)-.009502295*T**2
     +7.25739E-07*T**3+2730741*T**(-1); 1800 Y
      +70435.6421+385.238283*T-81.99149*T*LN(T)-1.761597E-04*T**2
     +4.99483E-09*T**3+8127570*T**(-1); 6000 N !
 FUNCTION F166T     298.15 +480383.542-1.58706566*T-36.90579*T*LN(T)
     -7.56815E-04*T**2-1.31040183E-07*T**3+16498.85*T**(-1); 1600 Y
      +484703.82-58.8210679*T-28.53999*T*LN(T)-.00618347*T**2
     +4.55704333E-07*T**3; 3100 Y
      +399551.917+333.52963*T-78.48514*T*LN(T)+.006619755*T**2
     -1.5106045E-07*T**3+26673440*T**(-1); 6000 N !
 FUNCTION F1393T    298.15 +558741.081-13.340364*T-20.91611*T*LN(T)
     +7.20885E-05*T**2-5.63569667E-09*T**3+4306.9065*T**(-1); 4800 Y
      +593321.479-80.4363033*T-13.38924*T*LN(T)-5.13201E-04*T**2
     -2.51243833E-09*T**3-26985320*T**(-1); 10000 N !
 FUNCTION F1412T    298.15 +35719.8665-742.595159*T+102.9528*T*LN(T)
     -.5464555*T**2+9.07147E-05*T**3-225559.45*T**(-1); 400 Y
      -12892.3573+184.63672*T-46.224*T*LN(T)-.35411075*T**2
     +4.85348833E-05*T**3+2637970*T**(-1); 600 Y
      -77448.7425+1113.01602*T-188.3528*T*LN(T)-.2174362*T**2
     +2.44556167E-05*T**3+8061880*T**(-1); 1000 Y
      -227784.156+2678.32782*T-415.2963*T*LN(T)-.0639556*T**2
     +4.844075E-06*T**3+26886595*T**(-1); 1600 Y
      -366769.22+3646.5291*T-546.7735*T*LN(T)-.00815951*T**2
     +3.64899833E-07*T**3+54699500*T**(-1); 3000 Y
      -425805.521+3899.74941*T-578.7392*T*LN(T)-3.9619135E-04*T**2
     +9.12941833E-09*T**3+75395700*T**(-1); 6000 N !
 FUNCTION F1708T    298.15 +438634.121+.487669024*T-25.51574*T*LN(T)
     -.003599787*T**2-8.3802E-08*T**3-65902.75*T**(-1); 800 Y
      +431905.323+60.6127222*T-33.91464*T*LN(T)+2.7803635E-04*T**2
     -2.635735E-07*T**3+857056.5*T**(-1); 1900 Y
      +506133.014-316.410008*T+14.73958*T*LN(T)-.01347488*T**2
     +4.34139E-07*T**3-19911350*T**(-1); 3500 Y
      +300895.2+283.015176*T-56.71971*T*LN(T)-.002922938*T**2
     +1.63579533E-07*T**3+87173100*T**(-1); 5800 Y
      -200719.32+1479.84894*T-195.9874*T*LN(T)+.01428863*T**2
     -2.35617833E-07*T**3+4.2671285E+08*T**(-1); 6000 N !
 FUNCTION F1756T    298.15 +309752.904-9.09841304*T-26.63895*T*LN(T)
     -.011276995*T**2+9.34868E-09*T**3-61010.7*T**(-1); 700 Y
      +310119.645-34.4051787*T-22.26708*T*LN(T)-.01837512*T**2
     +1.71489167E-06*T**3+73910.35*T**(-1); 1400 Y
      +274585.874+243.984452*T-60.78432*T*LN(T)+3.617634E-04*T**2
     -9.644785E-09*T**3+6282680*T**(-1); 6000 N !
 FUNCTION F1771T    298.15 +83198.6171-86.8456232*T-12.87203*T*LN(T)
     -.030065115*T**2+2.44170667E-06*T**3-235475.25*T**(-1); 800 Y
      +71889.2846+23.4582694*T-28.59129*T*LN(T)-.02110519*T**2
     +1.620855E-06*T**3+1215614.5*T**(-1); 1600 Y
      +19486.0299+378.655738*T-76.65203*T*LN(T)-.0011497315*T**2
     +3.81149667E-08*T**3+12116605*T**(-1); 4700 Y
      +5379.33085+427.301126*T-82.59504*T*LN(T)-5.582035E-05*T**2
     +1.10261683E-09*T**3+18352525*T**(-1); 6000 N !
 FUNCTION F1963T    298.15 +829926.969-93.2007055*T-13.63395*T*LN(T)
     -.033960835*T**2+7.30767333E-06*T**3-67153.4*T**(-1); 600 Y
      +815354.412+137.9026*T-49.68482*T*LN(T)+.00543292*T**2
     -7.11178167E-07*T**3+1030739.5*T**(-1); 1400 Y
      +823475.255+55.7356682*T-37.91694*T*LN(T)-.001645613*T**2
     +5.37223333E-08*T**3+105366.3*T**(-1); 6000 N !
 FUNCTION F2031T    298.15 +27306.2833-167.644062*T-.4655732*T*LN(T)
     -.10923545*T**2+1.39321867E-05*T**3+27295.47*T**(-1); 700 Y
      -7011.34498+272.53397*T-66.60291*T*LN(T)-.05235645*T**2
     +4.69880333E-06*T**3+3372631*T**(-1); 1300 Y
      -93616.4339+961.476296*T-162.173*T*LN(T)-.0048996925*T**2
     +2.19709167E-07*T**3+18247720*T**(-1); 3300 Y
      -128807.411+1114.66695*T-181.541*T*LN(T)-1.6398765E-04*T**2
     +3.77104333E-09*T**3+30339030*T**(-1); 6000 N !
 FUNCTION F2245T    298.15 +65999.845-413.027897*T+41.17228*T*LN(T)
     -.24759865*T**2+2.96437833E-05*T**3-140561.05*T**(-1); 400 Y
      +53683.4409-209.593493*T+9.731524*T*LN(T)-.2208148*T**2
     +2.96042333E-05*T**3+663530*T**(-1); 600 Y
      +17879.0907+303.38793*T-68.75986*T*LN(T)-.1455308*T**2
     +1.6339635E-05*T**3+3687966*T**(-1); 1000 Y
      -82240.0906+1345.58602*T-219.852*T*LN(T)-.04339896*T**2
     +3.29830333E-06*T**3+16226075*T**(-1); 1600 Y
      -179332.156+2018.89074*T-311.2277*T*LN(T)-.00476976*T**2
     +2.04984667E-07*T**3+35779060*T**(-1); 3200 Y
      -216236.376+2172.59907*T-330.546*T*LN(T)-2.458644E-04*T**2
     +5.696865E-09*T**3+49138780*T**(-1); 6000 N !
 FUNCTION F2551T    298.15 +317728.272+4.07463094*T-20.95747*T*LN(T)
     +1.289317E-04*T**2-1.46578017E-08*T**3+5060.005*T**(-1); 2900 Y
      +324771.553+11.0266931*T-22.47131*T*LN(T)+.001644272*T**2
     -1.2953255E-07*T**3-6219450*T**(-1); 5400 Y
      +641704.233-812.878524*T+74.46554*T*LN(T)-.011492455*T**2
     +2.03259333E-07*T**3-1.999044E+08*T**(-1); 8600 Y
      -293442.954+721.070562*T-95.66403*T*LN(T)+.0022899085*T**2
     -6.42126833E-09*T**3+7.660445E+08*T**(-1); 10000 N !
 FUNCTION F2642T    298.15 +335393.425-19.1962719*T-23.06578*T*LN(T)
     -.00735415*T**2+6.66639E-07*T**3-94943.85*T**(-1); 1400 Y
      +329991.94+33.5416843*T-30.60933*T*LN(T)-.0027802115*T**2
     +1.5767025E-07*T**3+613606.5*T**(-1); 4000 Y
      +254760.627+308.691956*T-64.50855*T*LN(T)+.0039256825*T**2
     -8.82765833E-08*T**3+31508690*T**(-1); 6000 N !
 FUNCTION F2657T    298.15 +112417.155+48.2812965*T-31.38*T*LN(T)
     -.01184072*T**2+7.9496E-07*T**3+407940*T**(-1); 3000 N !
 FUNCTION F2731T    298.15 +631313.185-17.9255152*T-28.82606*T*LN(T)
     +.007985395*T**2-1.49803717E-06*T**3-258381.65*T**(-1); 700 Y
      +634787.644-69.1061776*T-20.94608*T*LN(T)+5.363295E-05*T**2
     -3.25708E-09*T**3-545247.5*T**(-1); 3000 N !
 FUNCTION F5783T    298.15 +170631.61-14.470473*T-20.97219*T*LN(T)
     +1.78157E-04*T**2-2.74831667E-08*T**3+4459.1005*T**(-1); 1900 Y
      +133042.047+211.942959*T-51.03146*T*LN(T)+.01095733*T**2
     -7.58329333E-07*T**3+8900275*T**(-1); 3600 Y
      +802106.637-2023.14842*T+221.2015*T*LN(T)-.03849748*T**2
     +9.34346333E-07*T**3-3.007237E+08*T**(-1); 5900 Y
      -1016507.92+1951.8583*T-236.1074*T*LN(T)+.012768595*T**2
     -1.46631567E-07*T**3+1.0593555E+09*T**(-1); 10000 N !
 FUNCTION F5863T    298.15 +221747.08-39.5755615*T-23.34361*T*LN(T)
     -.01125994*T**2+1.64618883E-06*T**3-31552.07*T**(-1); 800 Y
      +217494.792+21.6975691*T-32.70332*T*LN(T)-.002461013*T**2
     +1.397199E-07*T**3+309731.9*T**(-1); 3300 Y
      +266500.909-68.8065824*T-23.08471*T*LN(T)-.0018792575*T**2
     +2.32418833E-08*T**3-31537130*T**(-1); 5800 Y
      +640344.097-958.462014*T+80.41179*T*LN(T)-.014648735*T**2
     +3.19216E-07*T**3-2.856714E+08*T**(-1); 6000 N !
 FUNCTION F6014T    298.15 +328351.639+100.727905*T-57.06096*T*LN(T)
     +.043881965*T**2-1.00131433E-05*T**3-34035.885*T**(-1); 500 Y
      +341516.759-125.927777*T-21.13135*T*LN(T)+2.0114005E-04*T**2
     -1.72831E-08*T**3-939425*T**(-1); 2400 Y
      +341937.685-129.505068*T-20.63507*T*LN(T)-3.0526885E-05*T**2
     +1.18918867E-09*T**3-1003665*T**(-1); 3000 N !
 FUNCTION F10703T   298.15 +401732.827+37.9381886*T-32.861*T*LN(T)
     +.00908265*T**2-1.34845667E-06*T**3+108791.4*T**(-1); 900 Y
      +410335.744-51.7107058*T-19.84276*T*LN(T)+6.959445E-05*T**2
     -1.30682983E-07*T**3-976411.5*T**(-1); 2400 Y
      +406591.004-47.1975307*T-20.12513*T*LN(T)-5.66549E-04*T**2
     -5.290265E-08*T**3+887592*T**(-1); 5500 Y
      +518056.742-373.01803*T+18.70844*T*LN(T)-.00634452*T**2
     +1.038655E-07*T**3-55487750*T**(-1); 10000 N !
 FUNCTION F10722T   298.15 +442516.639-69.0541041*T-19.757*T*LN(T)
     -.0205111*T**2+3.02333E-06*T**3-201435*T**(-1); 800 Y
      +428840.738+94.0320605*T-43.964*T*LN(T)-.0012627*T**2
     +1.17931667E-07*T**3+1260225*T**(-1); 3800 Y
      +371233.03+314.156658*T-71.26*T*LN(T)+.00443555*T**2-1.03065E-07*T**3
     +23894125*T**(-1); 6000 N !
 FUNCTION F10717T   298.15 +504399.708+155.240738*T-48.04721*T*LN(T)
     +.0045131445*T**2-1.38132583E-06*T**3+123625.75*T**(-1); 1100 Y
      +486141.022+236.598666*T-57.36458*T*LN(T)+7.8394E-05*T**2
     +3.40843667E-07*T**3+4098996*T**(-1); 2500 Y
      +500328.869+261.990839*T-62.41141*T*LN(T)+.00532538*T**2
     -1.30827917E-07*T**3-6839750*T**(-1); 6000 N !
 FUNCTION F11215T   298.15 +211801.621+24.4989816*T-20.78611*T*LN(T); 6000 N 
     !
 FUNCTION F11566T   298.15 +116023.611-5.97203561*T-27.8714*T*LN(T)
     -.00855795*T**2+1.28800033E-06*T**3+55464.75*T**(-1); 800 Y
      +114350.487+27.79891*T-33.23417*T*LN(T)-.002481958*T**2
     +1.26271067E-07*T**3+88237.45*T**(-1); 2500 Y
      +66381.0976+222.921947*T-57.5664*T*LN(T)+.0026616795*T**2
     -5.57447667E-08*T**3+17086430*T**(-1); 5800 Y
      -87162.1347+525.759238*T-91.84713*T*LN(T)+.005898595*T**2
     -1.08629117E-07*T**3+1.416939E+08*T**(-1); 6000 N !
 FUNCTION F11593T   298.15 +131813.496-11.1190209*T-23.0257*T*LN(T)
     -.01084371*T**2+1.465128E-06*T**3-45002.875*T**(-1); 900 Y
      +126624.805+57.2930696*T-33.31698*T*LN(T)-.0020776245*T**2
     +9.92572667E-08*T**3+421030.05*T**(-1); 3200 Y
      +49048.7694+318.184527*T-65.04984*T*LN(T)+.0035069695*T**2
     -7.63721333E-08*T**3+35152355*T**(-1); 6000 N !
 FUNCTION F11612T   298.15 +222569.756-36.5540737*T-22.58717*T*LN(T)
     -.010730575*T**2+1.38888383E-06*T**3-59388.15*T**(-1); 900 Y
      +221232.429-7.05242088*T-27.27345*T*LN(T)-.0055594*T**2
     +4.51406667E-07*T**3-85719.85*T**(-1); 2700 Y
      +156550.558+328.491051*T-70.68939*T*LN(T)+.00701029*T**2
     -2.16287E-07*T**3+17204330*T**(-1); 5600 Y
      +306536.767-77.3568006*T-22.71366*T*LN(T)+2.732552E-04*T**2
     -4.08427167E-08*T**3-69522550*T**(-1); 6000 N !
 FUNCTION F11660T   298.15 +132553.465-16.1455882*T-24.82785*T*LN(T)
     -.010652725*T**2+1.5821195E-06*T**3+2238.863*T**(-1); 800 Y
      +129256.793+35.5334778*T-32.81208*T*LN(T)-.0026811235*T**2
     +1.59482667E-07*T**3+223972.1*T**(-1); 2500 Y
      +52224.6947+343.223031*T-71.12485*T*LN(T)+.00541529*T**2
     -1.38711217E-07*T**3+28391720*T**(-1); 5800 Y
      +307909.677-276.144987*T+1.091352*T*LN(T)-.003663472*T**2
     +7.54038833E-08*T**3-1.4180265E+08*T**(-1); 6000 N !
 FUNCTION F11685T   298.15 +374456.652-34.0578028*T-24.054*T*LN(T)
     -.01185105*T**2+1.23611E-06*T**3-15550*T**(-1); 1200 Y
      +362141.292+89.7695408*T-41.846*T*LN(T)-7.219E-04*T**2-4.367E-08*T**3
     +1525260*T**(-1); 3100 Y
      +335048.906+118.55457*T-44.078*T*LN(T)-.0025659*T**2
     +1.23796667E-07*T**3+20792295*T**(-1); 5700 Y
      -56310.2884+1055.69873*T-153.197*T*LN(T)+.01100975*T**2
     -1.93861667E-07*T**3+2.8526535E+08*T**(-1); 6000 N !
 FUNCTION F11744T   298.15 +109661.039-11.1389569*T-28.7282*T*LN(T)
     -.00793145*T**2+1.19291817E-06*T**3+67803.45*T**(-1); 800 Y
      +108582.415+15.6381062*T-33.05555*T*LN(T)-.002663514*T**2
     +1.50639467E-07*T**3+36175.31*T**(-1); 2500 Y
      +62975.6615+205.037957*T-56.7628*T*LN(T)+.0025465075*T**2
     -4.74278333E-08*T**3+15925750*T**(-1); 6000 N !
 FUNCTION F11767T   298.15 +211140.912-43.6301674*T-24.36669*T*LN(T)
     -.01080168*T**2+1.61599E-06*T**3-7957.64*T**(-1); 800 Y
      +206276.789+21.9054667*T-34.29294*T*LN(T)-.0018393885*T**2
     +1.05009867E-07*T**3+436740.95*T**(-1); 3100 Y
      +276729.92-164.13142*T-12.69107*T*LN(T)-.0038473845*T**2
     +8.15391167E-08*T**3-37046305*T**(-1); 5600 Y
      +340796.01-362.685884*T+11.13054*T*LN(T)-.007566195*T**2
     +1.86267333E-07*T**3-66454900*T**(-1); 6000 N !
 FUNCTION F11795T   298.15 +508873.032-56.3652528*T-23.04183*T*LN(T)
     -.01071154*T**2+1.4689955E-06*T**3-46462.485*T**(-1); 1000 Y
      +500139.247+39.1135316*T-37.03719*T*LN(T)-3.8075865E-04*T**2
     +2.06460167E-09*T**3+1021210*T**(-1); 6000 N !
 FUNCTION F11227T   298.15 -9522.97393+78.5273873*T-31.35707*T*LN(T)
     +.0027589925*T**2-7.46390667E-07*T**3+56582.3*T**(-1); 1000 Y
      +180.10884-15.6128262*T-17.84857*T*LN(T)-.00584168*T**2
     +3.14618667E-07*T**3-1280036*T**(-1); 2100 Y
      -18840.1661+92.3120249*T-32.05082*T*LN(T)-.0010728235*T**2
     +1.14281783E-08*T**3+3561002.5*T**(-1); 6000 N !
 FUNCTION F12833T   298.15 +82666.7287-18.8597118*T-21.13652*T*LN(T)
     +3.263815E-04*T**2-4.88193833E-08*T**3+8623*T**(-1); 2100 Y
      +95214.8989-58.7763876*T-16.47469*T*LN(T)+1.8283925E-04*T**2
     -1.181286E-07*T**3-4900225.5*T**(-1); 4500 Y
      +330899.458-746.725542*T+65.78716*T*LN(T)-.012648195*T**2
     +2.58849667E-07*T**3-1.323186E+08*T**(-1); 7400 Y
      -586517.642+917.252814*T-121.1246*T*LN(T)+.0043326875*T**2
     -3.13419333E-08*T**3+7.14826E+08*T**(-1); 10000 N !
 FUNCTION F12857T   298.15 +159708.142+13.3177741*T-36.16766*T*LN(T)
     -.002080635*T**2+2.01223167E-07*T**3+5542.825*T**(-1); 900 Y
      +152464.636+65.2173358*T-43.07486*T*LN(T)-4.1793015E-04*T**2
     +3.981725E-07*T**3+1202979*T**(-1); 1700 Y
      +130505.04+261.20373*T-70.48822*T*LN(T)+.0133959*T**2
     -8.36289667E-07*T**3+3879652.5*T**(-1); 3100 Y
      +412695.288-899.517607*T+75.04089*T*LN(T)-.01992972*T**2
     +5.93207667E-07*T**3-98632550*T**(-1); 5500 Y
      -302016.553+900.324372*T-135.8796*T*LN(T)+.00774844*T**2
     -8.77728E-08*T**3+3.5598985E+08*T**(-1); 6000 N !
 FUNCTION F12884T   298.15 +122242.07-17.7329219*T-33.66411*T*LN(T)
     -.0057727*T**2+8.57839833E-07*T**3-50940*T**(-1); 800 Y
      +109122.155+100.24847*T-50.15795*T*LN(T)+.0018502215*T**2
     +5.24156333E-07*T**3+1733788*T**(-1); 1400 Y
      +88354.4453+304.048209*T-79.20345*T*LN(T)+.01874343*T**2
     -1.24203683E-06*T**3+4199069.5*T**(-1); 2700 Y
      +423048.303-1120.71314*T+100.4292*T*LN(T)-.024460385*T**2
     +7.237585E-07*T**3-1.1359655E+08*T**(-1); 5400 Y
      -407096.036+981.040606*T-146.0493*T*LN(T)+.008087385*T**2
     -8.23452833E-08*T**3+4.112531E+08*T**(-1); 6000 N !
 FUNCTION F12905T   298.15 +110470.972-53.4921546*T-31.03742*T*LN(T)
     -.01082176*T**2+2.59897667E-06*T**3-79754.8*T**(-1); 900 Y
      +83764.1884+242.1789*T-74.3261*T*LN(T)+.020365205*T**2
     -1.61418717E-06*T**3+3009774.5*T**(-1); 2200 Y
      +323122.752-964.067825*T+81.55392*T*LN(T)-.025112535*T**2
     +8.959165E-07*T**3-66377800*T**(-1); 4500 Y
      -387693.004+1114.56835*T-167.0146*T*LN(T)+.01362819*T**2
     -2.38786667E-07*T**3+3.1602645E+08*T**(-1); 6000 N !
 FUNCTION F12843T   298.15 +116830.132-35.2572179*T-31.24845*T*LN(T)
     -.011272125*T**2+2.82333833E-06*T**3-67414.35*T**(-1); 900 Y
      +80568.4037+357.696336*T-88.60734*T*LN(T)+.02938261*T**2
     -2.63023167E-06*T**3+4260576.5*T**(-1); 2200 Y
      +639659.157-2443.85825*T+272.9801*T*LN(T)-.074798*T**2
     +3.01408333E-06*T**3-1.5813375E+08*T**(-1); 3300 Y
      -487725.534+1421.21034*T-199.1774*T*LN(T)+.012645665*T**2
     -4.84245E-09*T**3+3.4436415E+08*T**(-1); 4500 Y
      -775041.605+2444.94873*T-324.4177*T*LN(T)+.035652475*T**2
     -7.70021667E-07*T**3+4.5724375E+08*T**(-1); 6000 N !
 FUNCTION F13084T   298.15 +152984.64+2.33568506*T-21.07772*T*LN(T)
     +2.515552E-04*T**2-3.41354333E-08*T**3+7690.735*T**(-1); 2400 Y
      +183390.413-110.69493*T-7.20516*T*LN(T)-.002217371*T**2
     +2.443155E-08*T**3-11648370*T**(-1); 4800 Y
      +109652.446+17.2445126*T-21.24264*T*LN(T)-.0015038825*T**2
     +3.76717667E-08*T**3+50092500*T**(-1); 8800 Y
      -72231.6406+344.035356*T-57.87689*T*LN(T)+.0017448465*T**2
     -1.58650733E-08*T**3+2.178053E+08*T**(-1); 10000 N !
 FUNCTION F13135T   298.15 +167499.139+24.0768951*T-36.1274*T*LN(T)
     -.002313599*T**2+2.498375E-07*T**3+20282.63*T**(-1); 1000 Y
      +158805.041+82.8239792*T-43.89188*T*LN(T)-4.3518875E-04*T**2
     +3.99696E-07*T**3+1574155*T**(-1); 1800 Y
      +130225.898+304.895232*T-74.39618*T*LN(T)+.01325589*T**2
     -7.11431167E-07*T**3+6137435*T**(-1); 3500 Y
      +514976.598-1062.26261*T+93.58793*T*LN(T)-.019554065*T**2
     +4.97396E-07*T**3-1.602374E+08*T**(-1); 6000 N !
 FUNCTION F13158T   298.15 +153281.126+.984714133*T-35.90496*T*LN(T)
     -.0025736085*T**2+2.620315E-07*T**3-2843.824*T**(-1); 900 Y
      +146109.858+52.1488603*T-42.69915*T*LN(T)-.001049364*T**2
     +4.94141667E-07*T**3+1180454*T**(-1); 1600 Y
      +116202.33+297.783127*T-76.79837*T*LN(T)+.015584465*T**2
     -9.87092667E-07*T**3+5818140*T**(-1); 2900 Y
      +396204.149-896.048825*T+73.68687*T*LN(T)-.020425125*T**2
     +6.310055E-07*T**3-92068000*T**(-1); 5300 Y
      -328929.122+979.632275*T-146.9183*T*LN(T)+.00944245*T**2
     -1.27728267E-07*T**3+3.557556E+08*T**(-1); 6000 N !
 FUNCTION F13094T   298.15 +203319.119+52.2617041*T-37.02637*T*LN(T)
     -8.421915E-04*T**2-1.078653E-07*T**3+65874.15*T**(-1); 1100 Y
      +200885.055+48.6776391*T-35.9057*T*LN(T)-.0039990175*T**2
     +5.08151333E-07*T**3+883657*T**(-1); 1900 Y
      +137315.894+473.019388*T-93.02457*T*LN(T)+.018440525*T**2
     -1.12358533E-06*T**3+13866255*T**(-1); 3100 Y
      +638944.289-1507.74849*T+153.9314*T*LN(T)-.035715045*T**2
     +1.10781833E-06*T**3-1.776338E+08*T**(-1); 5100 Y
      -624845.177+1789.13827*T-234.2722*T*LN(T)+.0173718*T**2
     -2.55232167E-07*T**3+5.95322E+08*T**(-1); 6000 N !
 FUNCTION F13284T   298.15 +136346.96-4.82603167*T-20.78595*T*LN(T)
     -9.778455E-08*T**2; 1900 Y
      +131004.76+25.2078895*T-24.73039*T*LN(T)+.001300831*T**2
     -8.09592167E-08*T**3+1361843*T**(-1); 2700 Y
      +108558.443+123.736524*T-37.20356*T*LN(T)+.004390735*T**2
     -2.24912E-07*T**3+8958715*T**(-1); 3640 Y
      +137405.469+24.8050173*T-25.1271*T*LN(T)+.002179723*T**2
     -1.502275E-07*T**3-3744678*T**(-1); 5400 Y
      +453901.917-789.444217*T+70.54811*T*LN(T)-.010649025*T**2
     +1.716475E-07*T**3-1.996814E+08*T**(-1); 9200 Y
      -320526.4+427.791915*T-63.73726*T*LN(T)-2.847232E-04*T**2
     +2.15099667E-08*T**3+6.39436E+08*T**(-1); 10000 N !
 FUNCTION F13297T   298.15 +265944.946-87.7878521*T-20.93983*T*LN(T)
     +1.552631E-04*T**2-2.450615E-08*T**3-152571.35*T**(-1); 1900 Y
      +60639.4722+1067.97947*T-172.7914*T*LN(T)+.05046705*T**2
     -3.17995833E-06*T**3+52217650*T**(-1); 3100 Y
      +1258706.77-3439.78878*T+385.2094*T*LN(T)-.06477725*T**2
     +1.27170267E-06*T**3-4.2909405E+08*T**(-1); 3800 Y
      +3667699.34-11556.5772*T+1374.666*T*LN(T)-.24531065*T**2
     +7.44476833E-06*T**3-1.5282495E+09*T**(-1); 4800 Y
      -5340467.97+12291.2038*T-1438.848*T*LN(T)+.1458377*T**2
     -2.76687E-06*T**3+3.8878475E+09*T**(-1); 6000 N !
 FUNCTION F13947T   298.15 +101202.044-12.9290072*T-21.02539*T*LN(T)
     +1.9194285E-04*T**2-2.37558167E-08*T**3+6714.165*T**(-1); 2700 Y
      +123818.458-80.8203219*T-13.00233*T*LN(T)-6.87485E-04*T**2
     -3.3153E-08*T**3-10435685*T**(-1); 5500 Y
      +200317.377-314.322311*T+14.94379*T*LN(T)-.0049580625*T**2
     +8.45444167E-08*T**3-45680820*T**(-1); 9600 Y
      -248549.945+382.618817*T-61.81729*T*LN(T)+8.73722E-04*T**2
     +1.54938383E-09*T**3+4.4661115E+08*T**(-1); 10000 N !
 FUNCTION F13981T   298.15 +121700.926-38.1779483*T-31.97033*T*LN(T)
     -.00916873*T**2+2.08755167E-06*T**3-69508.4*T**(-1); 1000 Y
      +94420.9092+243.660916*T-72.743*T*LN(T)+.017856225*T**2
     -1.2636115E-06*T**3+3345479.5*T**(-1); 2500 Y
      +364794.2-980.291854*T+82.96047*T*LN(T)-.022351825*T**2
     +7.024245E-07*T**3-85374900*T**(-1); 5100 Y
      -377970.169+983.779703*T-148.7267*T*LN(T)+.0098236*T**2
     -1.36436233E-07*T**3+3.621276E+08*T**(-1); 6000 N !
 FUNCTION F13957T   298.15 +131697.685+6.55101008*T-35.05636*T*LN(T)
     -.0039954535*T**2+5.82776667E-07*T**3-20127.66*T**(-1); 800 Y
      +123510.411+75.1001474*T-44.47351*T*LN(T)-5.345085E-04*T**2
     +6.400745E-07*T**3+1150765*T**(-1); 1500 Y
      +79657.0273+417.408691*T-91.76357*T*LN(T)+.022097085*T**2
     -1.3875195E-06*T**3+8765605*T**(-1); 3100 Y
      +841444.171-2436.16812*T+261.4099*T*LN(T)-.0509968*T**2
     +1.46319E-06*T**3-3.005069E+08*T**(-1); 4800 Y
      -471200.866+911.741259*T-131.5149*T*LN(T)+.0011608825*T**2
     +1.68225167E-07*T**3+5.200375E+08*T**(-1); 6000 N !
 FUNCTION F14217T   298.15 +414972.341-18.8056393*T-24.34*T*LN(T)
     +.0046806645*T**2-3.40084167E-06*T**3; 400 Y
      +415486.817-40.9586295*T-20.26685*T*LN(T)-.006038615*T**2
     +1.2890125E-06*T**3; 800 Y
      +411065.296+18.3133675*T-29.24746*T*LN(T)+.0021365025*T**2
     -1.14496517E-07*T**3+412765.95*T**(-1); 2600 Y
      +411224.713+11.7609247*T-28.29857*T*LN(T)+.001646801*T**2
     -7.78248167E-08*T**3+785084*T**(-1); 5000 Y
      +406354.126+39.4541897*T-31.80175*T*LN(T)+.0024133565*T**2
     -1.0515525E-07*T**3; 10000 N !
 FUNCTION F14235T   298.15 +638073.28-68.1901937*T-24.897*T*LN(T)
     -.0313584*T**2+5.93355333E-06*T**3-14215*T**(-1); 800 Y
      +611401.773+268.08482*T-75.25401*T*LN(T)+.01088525*T**2
     -7.08741667E-07*T**3+2633835*T**(-1); 2100 Y
      +637459.339+72.071267*T-48.587*T*LN(T)-9.09E-05*T**2
     +9.12933333E-08*T**3-1191755*T**(-1); 4500 Y
      +564540.781+329.59901*T-80.11301*T*LN(T)+.00578085*T**2
     -1.08841667E-07*T**3+29137900*T**(-1); 6000 N !
 FUNCTION F15872T   298.15 +74578.3959-28.7853967*T-21.1108*T*LN(T)
     +3.0964455E-04*T**2-4.76836833E-08*T**3+7814.06*T**(-1); 2000 Y
      +75666.019-13.5211524*T-23.54707*T*LN(T)+.002206951*T**2
     -2.34194167E-07*T**3-1347291*T**(-1); 4300 Y
      +506103.344-1259.82265*T+125.3247*T*LN(T)-.02082908*T**2
     +4.38623833E-07*T**3-2.362078E+08*T**(-1); 7200 Y
      -1088579.32+1685.12973*T-206.2222*T*LN(T)+.009894165*T**2
     -9.670445E-08*T**3+1.2060155E+09*T**(-1); 10000 N !
 FUNCTION F15882T   298.15 +103238.331-43.603176*T-33.34313*T*LN(T)
     -.00871892*T**2+2.59826167E-06*T**3-38597.53*T**(-1); 800 Y
      +83590.147+196.899791*T-69.17479*T*LN(T)+.02034409*T**2
     -1.82509667E-06*T**3+1982868*T**(-1); 2000 Y
      +284190.319-907.549804*T+75.45399*T*LN(T)-.02637887*T**2
     +1.03050233E-06*T**3-50562000*T**(-1); 4100 Y
      -335543.831+1053.76805*T-161.6393*T*LN(T)+.014065395*T**2
     -2.66586833E-07*T**3+2.543271E+08*T**(-1); 6000 N !
 FUNCTION F16551T   298.15 +153602.922-22.5981707*T-20.98549*T*LN(T)
     +1.951298E-04*T**2-3.09095833E-08*T**3+4675.2365*T**(-1); 1800 Y
      +110622.883+243.910805*T-56.52776*T*LN(T)+.0133862*T**2
     -9.57800833E-07*T**3+9843260*T**(-1); 3300 Y
      +770247.913-2113.22282*T+233.253*T*LN(T)-.04337796*T**2
     +1.134592E-06*T**3-2.7250735E+08*T**(-1); 4900 Y
      -197367.294+264.872067*T-44.45892*T*LN(T)-.008078665*T**2
     +2.96671167E-07*T**3+3.57637E+08*T**(-1); 6200 Y
      -949681.502+1953.67837*T-239.3059*T*LN(T)+.01421437*T**2
     -1.79062E-07*T**3+8.9842E+08*T**(-1); 9600 Y
      +33681.1759+476.502383*T-77.25547*T*LN(T)+.00232914*T**2
     -1.54504333E-08*T**3-2.2245325E+08*T**(-1); 10000 N !
 FUNCTION F16566T   298.15 +296202.76+61.7700383*T-54.13634*T*LN(T)
     +.040485225*T**2-9.264165E-06*T**3-70453.75*T**(-1); 500 Y
      +308348.288-147.486672*T-20.95926*T*LN(T)+1.012636E-04*T**2
     -8.03856667E-09*T**3-905190.5*T**(-1); 3000 N !
 FUNCTION F16729T   298.15 +467609.96-25.7916835*T-23.45359*T*LN(T)
     +.0026178525*T**2-4.83678833E-07*T**3-101456.95*T**(-1); 1800 Y
      +492971.637-184.379175*T-2.247876*T*LN(T)-.005476885*T**2
     +1.10024367E-07*T**3-5945505*T**(-1); 4500 Y
      +364869.208+112.534909*T-36.55164*T*LN(T)-.0016270125*T**2
     +3.69943667E-08*T**3+80422300*T**(-1); 10000 N !
 FUNCTION F16743T   298.15 +804579.989-13.3244359*T-33.852*T*LN(T)
     -.01680915*T**2+4.05913E-06*T**3+159805*T**(-1); 600 Y